(declare-fun g () String)
(declare-fun b () String)
(declare-fun d () String)
(declare-fun f () String)
(declare-fun a () String)
(declare-fun h () String)
(assert (= (str.++ d "de") (str.++ b "f" h)))
(assert (= (str.++ f "h" g "bcc") a))
(assert (= (str.++ d "b") (str.++ f h g)))

(check-sat)
